%PAL NPROCS 8 END
!PBE sv(p) D3 opt
%geom MaxIter 250
end
*xyzfile 0 1 benzene.xyz


